; benchmark generated from python API
(set-info :status unknown)
(declare-fun s () Int)
(define-funs-rec ( ( Tn_01 ((x!1 Int)) Int)
                   ( pn_01 ((x!1 Int)) Int)
                   ( T2_09 ((x!1 Int)) Int)
                   ( o2_09 ((x!1 Int)) Int)
                   ( f2_09 ((x!1 Int)) Int)
                   ( p2_09 ((x!1 Int)) Int))
                 ( (mod ((_ pn_01 0) x!1) s)
                   (ite (= x!1 0) 0 (+ ((_ pn_01 0) (div x!1 s)) x!1))
                   (mod (+ ((_ o2_09 0) x!1) 1) 2)
                   (let ((a!1 ((_ f2_09 0) (+ ((_ o2_09 0) (- x!1 1)) 1))))
                     (ite (= x!1 0) 1 a!1))
                   (ite (= (mod ((_ p2_09 0) x!1) 2) 1)
                        x!1
                        ((_ f2_09 0) (+ x!1 1)))
                   (ite (= x!1 0) 0 (+ ((_ p2_09 0) (div x!1 2)) x!1))))
(assert
 (forall ((n Int) )(let ((?x406 ((_ Tn_01 0) n)))
 (let (($x407 (= ?x406 n)))
 (let ((?x408 ((_ T2_09 0) n)))
 (let (($x409 (= ?x408 n)))
 (let (($x410 (and $x409 $x407)))
 (let (($x387 (< n s)))
 (let (($x411 (>= n 0)))
 (let (($x412 (and $x411 $x387)))
 (=> $x412 $x410))))))))))
 )
(assert
 (let ((?x370 ((_ T2_09 0) s)))
 (= ?x370 1)))
(assert
 (let ((?x322 ((_ Tn_01 0) s)))
 (= ?x322 1)))
(assert
 (forall ((n Int) )(let ((?x406 ((_ Tn_01 0) n)))
(let ((?x408 ((_ T2_09 0) n)))
(let (($x440 (= ?x408 ?x406)))
(let (($x411 (>= n 0)))
(=> $x411 $x440))))))
)
(check-sat)
